certificates/rado_a14_c152_N27.drat
-25 -27 0
d -25 -11 -27 0
12 11 -26 0
11 -26 -27 0
-11 -27 0
12 -27 0
-27 0
-9 -12 0
-12 0
11 0
-9 0
-13 0
1 0
25 0
-3 0
-23 0
19 0
7 0
-21 0
-17 0
-5 0
-10 0
0
